(set-logic QF_LRA)
(declare-fun X0 () Real )
(declare-fun Y0 () Real )
(declare-fun X1 () Real )
(declare-fun Y1 () Real )
(declare-fun X2 () Real )
(declare-fun Y2 () Real )
(declare-fun X3 () Real )
(declare-fun Y3 () Real )
(declare-fun X4 () Real )
(declare-fun Y4 () Real )
(declare-fun X5 () Real )
(declare-fun Y5 () Real )
(declare-fun X6 () Real )
(declare-fun Y6 () Real )
(declare-fun X7 () Real )
(declare-fun Y7 () Real )
(declare-fun X8 () Real )
(declare-fun Y8 () Real )
(declare-fun X9 () Real )
(declare-fun Y9 () Real )
(declare-fun X10 () Real )
(declare-fun Y10 () Real )
(declare-fun X11 () Real )
(declare-fun Y11 () Real )
(declare-fun X12 () Real )
(declare-fun Y12 () Real )
(declare-fun X13 () Real )
(declare-fun Y13 () Real )
(declare-fun X14 () Real )
(declare-fun Y14 () Real )
(declare-fun X15 () Real )
(declare-fun Y15 () Real )
(declare-fun X16 () Real )
(declare-fun Y16 () Real )
(declare-fun X17 () Real )
(declare-fun Y17 () Real )
(declare-fun Z () Real )
(declare-fun k () Real )
(assert (let
(( $goal (>= Z k) ))
(let
((
$phi ( and 
( or ( <= ( + X0 56 ) X1 )  ( <= ( + X1 84 ) X0 )  ( <= ( + Y0 11 ) Y1 )  ( <= ( + Y1 97 ) Y0 )  )
( or ( <= ( + X0 56 ) X2 )  ( <= ( + X2 53 ) X0 )  ( <= ( + Y0 11 ) Y2 )  ( <= ( + Y2 91 ) Y0 )  )
( or ( <= ( + X0 56 ) X3 )  ( <= ( + X3 13 ) X0 )  ( <= ( + Y0 11 ) Y3 )  ( <= ( + Y3 36 ) Y0 )  )
( or ( <= ( + X0 56 ) X4 )  ( <= ( + X4 82 ) X0 )  ( <= ( + Y0 11 ) Y4 )  ( <= ( + Y4 58 ) Y0 )  )
( or ( <= ( + X0 56 ) X5 )  ( <= ( + X5 35 ) X0 )  ( <= ( + Y0 11 ) Y5 )  ( <= ( + Y5 34 ) Y0 )  )
( or ( <= ( + X0 56 ) X6 )  ( <= ( + X6 79 ) X0 )  ( <= ( + Y0 11 ) Y6 )  ( <= ( + Y6 83 ) Y0 )  )
( or ( <= ( + X0 56 ) X7 )  ( <= ( + X7 2 ) X0 )  ( <= ( + Y0 11 ) Y7 )  ( <= ( + Y7 48 ) Y0 )  )
( or ( <= ( + X0 56 ) X8 )  ( <= ( + X8 60 ) X0 )  ( <= ( + Y0 11 ) Y8 )  ( <= ( + Y8 13 ) Y0 )  )
( or ( <= ( + X0 56 ) X9 )  ( <= ( + X9 45 ) X0 )  ( <= ( + Y0 11 ) Y9 )  ( <= ( + Y9 8 ) Y0 )  )
( or ( <= ( + X0 56 ) X10 )  ( <= ( + X10 22 ) X0 )  ( <= ( + Y0 11 ) Y10 )  ( <= ( + Y10 47 ) Y0 )  )
( or ( <= ( + X0 56 ) X11 )  ( <= ( + X11 25 ) X0 )  ( <= ( + Y0 11 ) Y11 )  ( <= ( + Y11 37 ) Y0 )  )
( or ( <= ( + X0 56 ) X12 )  ( <= ( + X12 7 ) X0 )  ( <= ( + Y0 11 ) Y12 )  ( <= ( + Y12 26 ) Y0 )  )
( or ( <= ( + X0 56 ) X13 )  ( <= ( + X13 94 ) X0 )  ( <= ( + Y0 11 ) Y13 )  ( <= ( + Y13 2 ) Y0 )  )
( or ( <= ( + X0 56 ) X14 )  ( <= ( + X14 36 ) X0 )  ( <= ( + Y0 11 ) Y14 )  ( <= ( + Y14 20 ) Y0 )  )
( or ( <= ( + X0 56 ) X15 )  ( <= ( + X15 100 ) X0 )  ( <= ( + Y0 11 ) Y15 )  ( <= ( + Y15 78 ) Y0 )  )
( or ( <= ( + X0 56 ) X16 )  ( <= ( + X16 64 ) X0 )  ( <= ( + Y0 11 ) Y16 )  ( <= ( + Y16 67 ) Y0 )  )
( or ( <= ( + X0 56 ) X17 )  ( <= ( + X17 53 ) X0 )  ( <= ( + Y0 11 ) Y17 )  ( <= ( + Y17 1 ) Y0 )  )
( or ( <= ( + X1 84 ) X2 )  ( <= ( + X2 53 ) X1 )  ( <= ( + Y1 97 ) Y2 )  ( <= ( + Y2 91 ) Y1 )  )
( or ( <= ( + X1 84 ) X3 )  ( <= ( + X3 13 ) X1 )  ( <= ( + Y1 97 ) Y3 )  ( <= ( + Y3 36 ) Y1 )  )
( or ( <= ( + X1 84 ) X4 )  ( <= ( + X4 82 ) X1 )  ( <= ( + Y1 97 ) Y4 )  ( <= ( + Y4 58 ) Y1 )  )
( or ( <= ( + X1 84 ) X5 )  ( <= ( + X5 35 ) X1 )  ( <= ( + Y1 97 ) Y5 )  ( <= ( + Y5 34 ) Y1 )  )
( or ( <= ( + X1 84 ) X6 )  ( <= ( + X6 79 ) X1 )  ( <= ( + Y1 97 ) Y6 )  ( <= ( + Y6 83 ) Y1 )  )
( or ( <= ( + X1 84 ) X7 )  ( <= ( + X7 2 ) X1 )  ( <= ( + Y1 97 ) Y7 )  ( <= ( + Y7 48 ) Y1 )  )
( or ( <= ( + X1 84 ) X8 )  ( <= ( + X8 60 ) X1 )  ( <= ( + Y1 97 ) Y8 )  ( <= ( + Y8 13 ) Y1 )  )
( or ( <= ( + X1 84 ) X9 )  ( <= ( + X9 45 ) X1 )  ( <= ( + Y1 97 ) Y9 )  ( <= ( + Y9 8 ) Y1 )  )
( or ( <= ( + X1 84 ) X10 )  ( <= ( + X10 22 ) X1 )  ( <= ( + Y1 97 ) Y10 )  ( <= ( + Y10 47 ) Y1 )  )
( or ( <= ( + X1 84 ) X11 )  ( <= ( + X11 25 ) X1 )  ( <= ( + Y1 97 ) Y11 )  ( <= ( + Y11 37 ) Y1 )  )
( or ( <= ( + X1 84 ) X12 )  ( <= ( + X12 7 ) X1 )  ( <= ( + Y1 97 ) Y12 )  ( <= ( + Y12 26 ) Y1 )  )
( or ( <= ( + X1 84 ) X13 )  ( <= ( + X13 94 ) X1 )  ( <= ( + Y1 97 ) Y13 )  ( <= ( + Y13 2 ) Y1 )  )
( or ( <= ( + X1 84 ) X14 )  ( <= ( + X14 36 ) X1 )  ( <= ( + Y1 97 ) Y14 )  ( <= ( + Y14 20 ) Y1 )  )
( or ( <= ( + X1 84 ) X15 )  ( <= ( + X15 100 ) X1 )  ( <= ( + Y1 97 ) Y15 )  ( <= ( + Y15 78 ) Y1 )  )
( or ( <= ( + X1 84 ) X16 )  ( <= ( + X16 64 ) X1 )  ( <= ( + Y1 97 ) Y16 )  ( <= ( + Y16 67 ) Y1 )  )
( or ( <= ( + X1 84 ) X17 )  ( <= ( + X17 53 ) X1 )  ( <= ( + Y1 97 ) Y17 )  ( <= ( + Y17 1 ) Y1 )  )
( or ( <= ( + X2 53 ) X3 )  ( <= ( + X3 13 ) X2 )  ( <= ( + Y2 91 ) Y3 )  ( <= ( + Y3 36 ) Y2 )  )
( or ( <= ( + X2 53 ) X4 )  ( <= ( + X4 82 ) X2 )  ( <= ( + Y2 91 ) Y4 )  ( <= ( + Y4 58 ) Y2 )  )
( or ( <= ( + X2 53 ) X5 )  ( <= ( + X5 35 ) X2 )  ( <= ( + Y2 91 ) Y5 )  ( <= ( + Y5 34 ) Y2 )  )
( or ( <= ( + X2 53 ) X6 )  ( <= ( + X6 79 ) X2 )  ( <= ( + Y2 91 ) Y6 )  ( <= ( + Y6 83 ) Y2 )  )
( or ( <= ( + X2 53 ) X7 )  ( <= ( + X7 2 ) X2 )  ( <= ( + Y2 91 ) Y7 )  ( <= ( + Y7 48 ) Y2 )  )
( or ( <= ( + X2 53 ) X8 )  ( <= ( + X8 60 ) X2 )  ( <= ( + Y2 91 ) Y8 )  ( <= ( + Y8 13 ) Y2 )  )
( or ( <= ( + X2 53 ) X9 )  ( <= ( + X9 45 ) X2 )  ( <= ( + Y2 91 ) Y9 )  ( <= ( + Y9 8 ) Y2 )  )
( or ( <= ( + X2 53 ) X10 )  ( <= ( + X10 22 ) X2 )  ( <= ( + Y2 91 ) Y10 )  ( <= ( + Y10 47 ) Y2 )  )
( or ( <= ( + X2 53 ) X11 )  ( <= ( + X11 25 ) X2 )  ( <= ( + Y2 91 ) Y11 )  ( <= ( + Y11 37 ) Y2 )  )
( or ( <= ( + X2 53 ) X12 )  ( <= ( + X12 7 ) X2 )  ( <= ( + Y2 91 ) Y12 )  ( <= ( + Y12 26 ) Y2 )  )
( or ( <= ( + X2 53 ) X13 )  ( <= ( + X13 94 ) X2 )  ( <= ( + Y2 91 ) Y13 )  ( <= ( + Y13 2 ) Y2 )  )
( or ( <= ( + X2 53 ) X14 )  ( <= ( + X14 36 ) X2 )  ( <= ( + Y2 91 ) Y14 )  ( <= ( + Y14 20 ) Y2 )  )
( or ( <= ( + X2 53 ) X15 )  ( <= ( + X15 100 ) X2 )  ( <= ( + Y2 91 ) Y15 )  ( <= ( + Y15 78 ) Y2 )  )
( or ( <= ( + X2 53 ) X16 )  ( <= ( + X16 64 ) X2 )  ( <= ( + Y2 91 ) Y16 )  ( <= ( + Y16 67 ) Y2 )  )
( or ( <= ( + X2 53 ) X17 )  ( <= ( + X17 53 ) X2 )  ( <= ( + Y2 91 ) Y17 )  ( <= ( + Y17 1 ) Y2 )  )
( or ( <= ( + X3 13 ) X4 )  ( <= ( + X4 82 ) X3 )  ( <= ( + Y3 36 ) Y4 )  ( <= ( + Y4 58 ) Y3 )  )
( or ( <= ( + X3 13 ) X5 )  ( <= ( + X5 35 ) X3 )  ( <= ( + Y3 36 ) Y5 )  ( <= ( + Y5 34 ) Y3 )  )
( or ( <= ( + X3 13 ) X6 )  ( <= ( + X6 79 ) X3 )  ( <= ( + Y3 36 ) Y6 )  ( <= ( + Y6 83 ) Y3 )  )
( or ( <= ( + X3 13 ) X7 )  ( <= ( + X7 2 ) X3 )  ( <= ( + Y3 36 ) Y7 )  ( <= ( + Y7 48 ) Y3 )  )
( or ( <= ( + X3 13 ) X8 )  ( <= ( + X8 60 ) X3 )  ( <= ( + Y3 36 ) Y8 )  ( <= ( + Y8 13 ) Y3 )  )
( or ( <= ( + X3 13 ) X9 )  ( <= ( + X9 45 ) X3 )  ( <= ( + Y3 36 ) Y9 )  ( <= ( + Y9 8 ) Y3 )  )
( or ( <= ( + X3 13 ) X10 )  ( <= ( + X10 22 ) X3 )  ( <= ( + Y3 36 ) Y10 )  ( <= ( + Y10 47 ) Y3 )  )
( or ( <= ( + X3 13 ) X11 )  ( <= ( + X11 25 ) X3 )  ( <= ( + Y3 36 ) Y11 )  ( <= ( + Y11 37 ) Y3 )  )
( or ( <= ( + X3 13 ) X12 )  ( <= ( + X12 7 ) X3 )  ( <= ( + Y3 36 ) Y12 )  ( <= ( + Y12 26 ) Y3 )  )
( or ( <= ( + X3 13 ) X13 )  ( <= ( + X13 94 ) X3 )  ( <= ( + Y3 36 ) Y13 )  ( <= ( + Y13 2 ) Y3 )  )
( or ( <= ( + X3 13 ) X14 )  ( <= ( + X14 36 ) X3 )  ( <= ( + Y3 36 ) Y14 )  ( <= ( + Y14 20 ) Y3 )  )
( or ( <= ( + X3 13 ) X15 )  ( <= ( + X15 100 ) X3 )  ( <= ( + Y3 36 ) Y15 )  ( <= ( + Y15 78 ) Y3 )  )
( or ( <= ( + X3 13 ) X16 )  ( <= ( + X16 64 ) X3 )  ( <= ( + Y3 36 ) Y16 )  ( <= ( + Y16 67 ) Y3 )  )
( or ( <= ( + X3 13 ) X17 )  ( <= ( + X17 53 ) X3 )  ( <= ( + Y3 36 ) Y17 )  ( <= ( + Y17 1 ) Y3 )  )
( or ( <= ( + X4 82 ) X5 )  ( <= ( + X5 35 ) X4 )  ( <= ( + Y4 58 ) Y5 )  ( <= ( + Y5 34 ) Y4 )  )
( or ( <= ( + X4 82 ) X6 )  ( <= ( + X6 79 ) X4 )  ( <= ( + Y4 58 ) Y6 )  ( <= ( + Y6 83 ) Y4 )  )
( or ( <= ( + X4 82 ) X7 )  ( <= ( + X7 2 ) X4 )  ( <= ( + Y4 58 ) Y7 )  ( <= ( + Y7 48 ) Y4 )  )
( or ( <= ( + X4 82 ) X8 )  ( <= ( + X8 60 ) X4 )  ( <= ( + Y4 58 ) Y8 )  ( <= ( + Y8 13 ) Y4 )  )
( or ( <= ( + X4 82 ) X9 )  ( <= ( + X9 45 ) X4 )  ( <= ( + Y4 58 ) Y9 )  ( <= ( + Y9 8 ) Y4 )  )
( or ( <= ( + X4 82 ) X10 )  ( <= ( + X10 22 ) X4 )  ( <= ( + Y4 58 ) Y10 )  ( <= ( + Y10 47 ) Y4 )  )
( or ( <= ( + X4 82 ) X11 )  ( <= ( + X11 25 ) X4 )  ( <= ( + Y4 58 ) Y11 )  ( <= ( + Y11 37 ) Y4 )  )
( or ( <= ( + X4 82 ) X12 )  ( <= ( + X12 7 ) X4 )  ( <= ( + Y4 58 ) Y12 )  ( <= ( + Y12 26 ) Y4 )  )
( or ( <= ( + X4 82 ) X13 )  ( <= ( + X13 94 ) X4 )  ( <= ( + Y4 58 ) Y13 )  ( <= ( + Y13 2 ) Y4 )  )
( or ( <= ( + X4 82 ) X14 )  ( <= ( + X14 36 ) X4 )  ( <= ( + Y4 58 ) Y14 )  ( <= ( + Y14 20 ) Y4 )  )
( or ( <= ( + X4 82 ) X15 )  ( <= ( + X15 100 ) X4 )  ( <= ( + Y4 58 ) Y15 )  ( <= ( + Y15 78 ) Y4 )  )
( or ( <= ( + X4 82 ) X16 )  ( <= ( + X16 64 ) X4 )  ( <= ( + Y4 58 ) Y16 )  ( <= ( + Y16 67 ) Y4 )  )
( or ( <= ( + X4 82 ) X17 )  ( <= ( + X17 53 ) X4 )  ( <= ( + Y4 58 ) Y17 )  ( <= ( + Y17 1 ) Y4 )  )
( or ( <= ( + X5 35 ) X6 )  ( <= ( + X6 79 ) X5 )  ( <= ( + Y5 34 ) Y6 )  ( <= ( + Y6 83 ) Y5 )  )
( or ( <= ( + X5 35 ) X7 )  ( <= ( + X7 2 ) X5 )  ( <= ( + Y5 34 ) Y7 )  ( <= ( + Y7 48 ) Y5 )  )
( or ( <= ( + X5 35 ) X8 )  ( <= ( + X8 60 ) X5 )  ( <= ( + Y5 34 ) Y8 )  ( <= ( + Y8 13 ) Y5 )  )
( or ( <= ( + X5 35 ) X9 )  ( <= ( + X9 45 ) X5 )  ( <= ( + Y5 34 ) Y9 )  ( <= ( + Y9 8 ) Y5 )  )
( or ( <= ( + X5 35 ) X10 )  ( <= ( + X10 22 ) X5 )  ( <= ( + Y5 34 ) Y10 )  ( <= ( + Y10 47 ) Y5 )  )
( or ( <= ( + X5 35 ) X11 )  ( <= ( + X11 25 ) X5 )  ( <= ( + Y5 34 ) Y11 )  ( <= ( + Y11 37 ) Y5 )  )
( or ( <= ( + X5 35 ) X12 )  ( <= ( + X12 7 ) X5 )  ( <= ( + Y5 34 ) Y12 )  ( <= ( + Y12 26 ) Y5 )  )
( or ( <= ( + X5 35 ) X13 )  ( <= ( + X13 94 ) X5 )  ( <= ( + Y5 34 ) Y13 )  ( <= ( + Y13 2 ) Y5 )  )
( or ( <= ( + X5 35 ) X14 )  ( <= ( + X14 36 ) X5 )  ( <= ( + Y5 34 ) Y14 )  ( <= ( + Y14 20 ) Y5 )  )
( or ( <= ( + X5 35 ) X15 )  ( <= ( + X15 100 ) X5 )  ( <= ( + Y5 34 ) Y15 )  ( <= ( + Y15 78 ) Y5 )  )
( or ( <= ( + X5 35 ) X16 )  ( <= ( + X16 64 ) X5 )  ( <= ( + Y5 34 ) Y16 )  ( <= ( + Y16 67 ) Y5 )  )
( or ( <= ( + X5 35 ) X17 )  ( <= ( + X17 53 ) X5 )  ( <= ( + Y5 34 ) Y17 )  ( <= ( + Y17 1 ) Y5 )  )
( or ( <= ( + X6 79 ) X7 )  ( <= ( + X7 2 ) X6 )  ( <= ( + Y6 83 ) Y7 )  ( <= ( + Y7 48 ) Y6 )  )
( or ( <= ( + X6 79 ) X8 )  ( <= ( + X8 60 ) X6 )  ( <= ( + Y6 83 ) Y8 )  ( <= ( + Y8 13 ) Y6 )  )
( or ( <= ( + X6 79 ) X9 )  ( <= ( + X9 45 ) X6 )  ( <= ( + Y6 83 ) Y9 )  ( <= ( + Y9 8 ) Y6 )  )
( or ( <= ( + X6 79 ) X10 )  ( <= ( + X10 22 ) X6 )  ( <= ( + Y6 83 ) Y10 )  ( <= ( + Y10 47 ) Y6 )  )
( or ( <= ( + X6 79 ) X11 )  ( <= ( + X11 25 ) X6 )  ( <= ( + Y6 83 ) Y11 )  ( <= ( + Y11 37 ) Y6 )  )
( or ( <= ( + X6 79 ) X12 )  ( <= ( + X12 7 ) X6 )  ( <= ( + Y6 83 ) Y12 )  ( <= ( + Y12 26 ) Y6 )  )
( or ( <= ( + X6 79 ) X13 )  ( <= ( + X13 94 ) X6 )  ( <= ( + Y6 83 ) Y13 )  ( <= ( + Y13 2 ) Y6 )  )
( or ( <= ( + X6 79 ) X14 )  ( <= ( + X14 36 ) X6 )  ( <= ( + Y6 83 ) Y14 )  ( <= ( + Y14 20 ) Y6 )  )
( or ( <= ( + X6 79 ) X15 )  ( <= ( + X15 100 ) X6 )  ( <= ( + Y6 83 ) Y15 )  ( <= ( + Y15 78 ) Y6 )  )
( or ( <= ( + X6 79 ) X16 )  ( <= ( + X16 64 ) X6 )  ( <= ( + Y6 83 ) Y16 )  ( <= ( + Y16 67 ) Y6 )  )
( or ( <= ( + X6 79 ) X17 )  ( <= ( + X17 53 ) X6 )  ( <= ( + Y6 83 ) Y17 )  ( <= ( + Y17 1 ) Y6 )  )
( or ( <= ( + X7 2 ) X8 )  ( <= ( + X8 60 ) X7 )  ( <= ( + Y7 48 ) Y8 )  ( <= ( + Y8 13 ) Y7 )  )
( or ( <= ( + X7 2 ) X9 )  ( <= ( + X9 45 ) X7 )  ( <= ( + Y7 48 ) Y9 )  ( <= ( + Y9 8 ) Y7 )  )
( or ( <= ( + X7 2 ) X10 )  ( <= ( + X10 22 ) X7 )  ( <= ( + Y7 48 ) Y10 )  ( <= ( + Y10 47 ) Y7 )  )
( or ( <= ( + X7 2 ) X11 )  ( <= ( + X11 25 ) X7 )  ( <= ( + Y7 48 ) Y11 )  ( <= ( + Y11 37 ) Y7 )  )
( or ( <= ( + X7 2 ) X12 )  ( <= ( + X12 7 ) X7 )  ( <= ( + Y7 48 ) Y12 )  ( <= ( + Y12 26 ) Y7 )  )
( or ( <= ( + X7 2 ) X13 )  ( <= ( + X13 94 ) X7 )  ( <= ( + Y7 48 ) Y13 )  ( <= ( + Y13 2 ) Y7 )  )
( or ( <= ( + X7 2 ) X14 )  ( <= ( + X14 36 ) X7 )  ( <= ( + Y7 48 ) Y14 )  ( <= ( + Y14 20 ) Y7 )  )
( or ( <= ( + X7 2 ) X15 )  ( <= ( + X15 100 ) X7 )  ( <= ( + Y7 48 ) Y15 )  ( <= ( + Y15 78 ) Y7 )  )
( or ( <= ( + X7 2 ) X16 )  ( <= ( + X16 64 ) X7 )  ( <= ( + Y7 48 ) Y16 )  ( <= ( + Y16 67 ) Y7 )  )
( or ( <= ( + X7 2 ) X17 )  ( <= ( + X17 53 ) X7 )  ( <= ( + Y7 48 ) Y17 )  ( <= ( + Y17 1 ) Y7 )  )
( or ( <= ( + X8 60 ) X9 )  ( <= ( + X9 45 ) X8 )  ( <= ( + Y8 13 ) Y9 )  ( <= ( + Y9 8 ) Y8 )  )
( or ( <= ( + X8 60 ) X10 )  ( <= ( + X10 22 ) X8 )  ( <= ( + Y8 13 ) Y10 )  ( <= ( + Y10 47 ) Y8 )  )
( or ( <= ( + X8 60 ) X11 )  ( <= ( + X11 25 ) X8 )  ( <= ( + Y8 13 ) Y11 )  ( <= ( + Y11 37 ) Y8 )  )
( or ( <= ( + X8 60 ) X12 )  ( <= ( + X12 7 ) X8 )  ( <= ( + Y8 13 ) Y12 )  ( <= ( + Y12 26 ) Y8 )  )
( or ( <= ( + X8 60 ) X13 )  ( <= ( + X13 94 ) X8 )  ( <= ( + Y8 13 ) Y13 )  ( <= ( + Y13 2 ) Y8 )  )
( or ( <= ( + X8 60 ) X14 )  ( <= ( + X14 36 ) X8 )  ( <= ( + Y8 13 ) Y14 )  ( <= ( + Y14 20 ) Y8 )  )
( or ( <= ( + X8 60 ) X15 )  ( <= ( + X15 100 ) X8 )  ( <= ( + Y8 13 ) Y15 )  ( <= ( + Y15 78 ) Y8 )  )
( or ( <= ( + X8 60 ) X16 )  ( <= ( + X16 64 ) X8 )  ( <= ( + Y8 13 ) Y16 )  ( <= ( + Y16 67 ) Y8 )  )
( or ( <= ( + X8 60 ) X17 )  ( <= ( + X17 53 ) X8 )  ( <= ( + Y8 13 ) Y17 )  ( <= ( + Y17 1 ) Y8 )  )
( or ( <= ( + X9 45 ) X10 )  ( <= ( + X10 22 ) X9 )  ( <= ( + Y9 8 ) Y10 )  ( <= ( + Y10 47 ) Y9 )  )
( or ( <= ( + X9 45 ) X11 )  ( <= ( + X11 25 ) X9 )  ( <= ( + Y9 8 ) Y11 )  ( <= ( + Y11 37 ) Y9 )  )
( or ( <= ( + X9 45 ) X12 )  ( <= ( + X12 7 ) X9 )  ( <= ( + Y9 8 ) Y12 )  ( <= ( + Y12 26 ) Y9 )  )
( or ( <= ( + X9 45 ) X13 )  ( <= ( + X13 94 ) X9 )  ( <= ( + Y9 8 ) Y13 )  ( <= ( + Y13 2 ) Y9 )  )
( or ( <= ( + X9 45 ) X14 )  ( <= ( + X14 36 ) X9 )  ( <= ( + Y9 8 ) Y14 )  ( <= ( + Y14 20 ) Y9 )  )
( or ( <= ( + X9 45 ) X15 )  ( <= ( + X15 100 ) X9 )  ( <= ( + Y9 8 ) Y15 )  ( <= ( + Y15 78 ) Y9 )  )
( or ( <= ( + X9 45 ) X16 )  ( <= ( + X16 64 ) X9 )  ( <= ( + Y9 8 ) Y16 )  ( <= ( + Y16 67 ) Y9 )  )
( or ( <= ( + X9 45 ) X17 )  ( <= ( + X17 53 ) X9 )  ( <= ( + Y9 8 ) Y17 )  ( <= ( + Y17 1 ) Y9 )  )
( or ( <= ( + X10 22 ) X11 )  ( <= ( + X11 25 ) X10 )  ( <= ( + Y10 47 ) Y11 )  ( <= ( + Y11 37 ) Y10 )  )
( or ( <= ( + X10 22 ) X12 )  ( <= ( + X12 7 ) X10 )  ( <= ( + Y10 47 ) Y12 )  ( <= ( + Y12 26 ) Y10 )  )
( or ( <= ( + X10 22 ) X13 )  ( <= ( + X13 94 ) X10 )  ( <= ( + Y10 47 ) Y13 )  ( <= ( + Y13 2 ) Y10 )  )
( or ( <= ( + X10 22 ) X14 )  ( <= ( + X14 36 ) X10 )  ( <= ( + Y10 47 ) Y14 )  ( <= ( + Y14 20 ) Y10 )  )
( or ( <= ( + X10 22 ) X15 )  ( <= ( + X15 100 ) X10 )  ( <= ( + Y10 47 ) Y15 )  ( <= ( + Y15 78 ) Y10 )  )
( or ( <= ( + X10 22 ) X16 )  ( <= ( + X16 64 ) X10 )  ( <= ( + Y10 47 ) Y16 )  ( <= ( + Y16 67 ) Y10 )  )
( or ( <= ( + X10 22 ) X17 )  ( <= ( + X17 53 ) X10 )  ( <= ( + Y10 47 ) Y17 )  ( <= ( + Y17 1 ) Y10 )  )
( or ( <= ( + X11 25 ) X12 )  ( <= ( + X12 7 ) X11 )  ( <= ( + Y11 37 ) Y12 )  ( <= ( + Y12 26 ) Y11 )  )
( or ( <= ( + X11 25 ) X13 )  ( <= ( + X13 94 ) X11 )  ( <= ( + Y11 37 ) Y13 )  ( <= ( + Y13 2 ) Y11 )  )
( or ( <= ( + X11 25 ) X14 )  ( <= ( + X14 36 ) X11 )  ( <= ( + Y11 37 ) Y14 )  ( <= ( + Y14 20 ) Y11 )  )
( or ( <= ( + X11 25 ) X15 )  ( <= ( + X15 100 ) X11 )  ( <= ( + Y11 37 ) Y15 )  ( <= ( + Y15 78 ) Y11 )  )
( or ( <= ( + X11 25 ) X16 )  ( <= ( + X16 64 ) X11 )  ( <= ( + Y11 37 ) Y16 )  ( <= ( + Y16 67 ) Y11 )  )
( or ( <= ( + X11 25 ) X17 )  ( <= ( + X17 53 ) X11 )  ( <= ( + Y11 37 ) Y17 )  ( <= ( + Y17 1 ) Y11 )  )
( or ( <= ( + X12 7 ) X13 )  ( <= ( + X13 94 ) X12 )  ( <= ( + Y12 26 ) Y13 )  ( <= ( + Y13 2 ) Y12 )  )
( or ( <= ( + X12 7 ) X14 )  ( <= ( + X14 36 ) X12 )  ( <= ( + Y12 26 ) Y14 )  ( <= ( + Y14 20 ) Y12 )  )
( or ( <= ( + X12 7 ) X15 )  ( <= ( + X15 100 ) X12 )  ( <= ( + Y12 26 ) Y15 )  ( <= ( + Y15 78 ) Y12 )  )
( or ( <= ( + X12 7 ) X16 )  ( <= ( + X16 64 ) X12 )  ( <= ( + Y12 26 ) Y16 )  ( <= ( + Y16 67 ) Y12 )  )
( or ( <= ( + X12 7 ) X17 )  ( <= ( + X17 53 ) X12 )  ( <= ( + Y12 26 ) Y17 )  ( <= ( + Y17 1 ) Y12 )  )
( or ( <= ( + X13 94 ) X14 )  ( <= ( + X14 36 ) X13 )  ( <= ( + Y13 2 ) Y14 )  ( <= ( + Y14 20 ) Y13 )  )
( or ( <= ( + X13 94 ) X15 )  ( <= ( + X15 100 ) X13 )  ( <= ( + Y13 2 ) Y15 )  ( <= ( + Y15 78 ) Y13 )  )
( or ( <= ( + X13 94 ) X16 )  ( <= ( + X16 64 ) X13 )  ( <= ( + Y13 2 ) Y16 )  ( <= ( + Y16 67 ) Y13 )  )
( or ( <= ( + X13 94 ) X17 )  ( <= ( + X17 53 ) X13 )  ( <= ( + Y13 2 ) Y17 )  ( <= ( + Y17 1 ) Y13 )  )
( or ( <= ( + X14 36 ) X15 )  ( <= ( + X15 100 ) X14 )  ( <= ( + Y14 20 ) Y15 )  ( <= ( + Y15 78 ) Y14 )  )
( or ( <= ( + X14 36 ) X16 )  ( <= ( + X16 64 ) X14 )  ( <= ( + Y14 20 ) Y16 )  ( <= ( + Y16 67 ) Y14 )  )
( or ( <= ( + X14 36 ) X17 )  ( <= ( + X17 53 ) X14 )  ( <= ( + Y14 20 ) Y17 )  ( <= ( + Y17 1 ) Y14 )  )
( or ( <= ( + X15 100 ) X16 )  ( <= ( + X16 64 ) X15 )  ( <= ( + Y15 78 ) Y16 )  ( <= ( + Y16 67 ) Y15 )  )
( or ( <= ( + X15 100 ) X17 )  ( <= ( + X17 53 ) X15 )  ( <= ( + Y15 78 ) Y17 )  ( <= ( + Y17 1 ) Y15 )  )
( or ( <= ( + X16 64 ) X17 )  ( <= ( + X17 53 ) X16 )  ( <= ( + Y16 67 ) Y17 )  ( <= ( + Y17 1 ) Y16 )  )
( >= X0 0)
( <= ( + X0 56) Z)
( >= Y0 0)
( <= ( + Y0 11 ) 212)
( >= X1 0)
( <= ( + X1 84) Z)
( >= Y1 0)
( <= ( + Y1 97 ) 212)
( >= X2 0)
( <= ( + X2 53) Z)
( >= Y2 0)
( <= ( + Y2 91 ) 212)
( >= X3 0)
( <= ( + X3 13) Z)
( >= Y3 0)
( <= ( + Y3 36 ) 212)
( >= X4 0)
( <= ( + X4 82) Z)
( >= Y4 0)
( <= ( + Y4 58 ) 212)
( >= X5 0)
( <= ( + X5 35) Z)
( >= Y5 0)
( <= ( + Y5 34 ) 212)
( >= X6 0)
( <= ( + X6 79) Z)
( >= Y6 0)
( <= ( + Y6 83 ) 212)
( >= X7 0)
( <= ( + X7 2) Z)
( >= Y7 0)
( <= ( + Y7 48 ) 212)
( >= X8 0)
( <= ( + X8 60) Z)
( >= Y8 0)
( <= ( + Y8 13 ) 212)
( >= X9 0)
( <= ( + X9 45) Z)
( >= Y9 0)
( <= ( + Y9 8 ) 212)
( >= X10 0)
( <= ( + X10 22) Z)
( >= Y10 0)
( <= ( + Y10 47 ) 212)
( >= X11 0)
( <= ( + X11 25) Z)
( >= Y11 0)
( <= ( + Y11 37 ) 212)
( >= X12 0)
( <= ( + X12 7) Z)
( >= Y12 0)
( <= ( + Y12 26 ) 212)
( >= X13 0)
( <= ( + X13 94) Z)
( >= Y13 0)
( <= ( + Y13 2 ) 212)
( >= X14 0)
( <= ( + X14 36) Z)
( >= Y14 0)
( <= ( + Y14 20 ) 212)
( >= X15 0)
( <= ( + X15 100) Z)
( >= Y15 0)
( <= ( + Y15 78 ) 212)
( >= X16 0)
( <= ( + X16 64) Z)
( >= Y16 0)
( <= ( + Y16 67 ) 212)
( >= X17 0)
( <= ( + X17 53) Z)
( >= Y17 0)
( <= ( + Y17 1 ) 212)
) )
)(=> $phi $goal))))